p cnf 484 1
484 0
w 1 0.294715
w 2 1 0.0428864
w 2 -1 0.354938
w 3 2 0
w 3 -2 1
w 4 3 0
w 4 -3 1
w 5 4 0.667154
w 5 -4 0.0979631
w 6 5 1
w 6 -5 0
w 7 6 1
w 7 -6 0
w 8 7 1
w 8 -7 0
w 9 8 0
w 9 -8 1
w 10 9 0
w 10 -9 1
w 11 10 1
w 11 -10 0
w 12 11 0
w 12 -11 1
w 13 12 0.700085
w 13 -12 0.357879
w 14 13 0
w 14 -13 1
w 15 14 0.42349
w 15 -14 0.768889
w 16 15 0.778428
w 16 -15 0.938181
w 17 16 0
w 17 -16 1
w 18 17 1
w 18 -17 0
w 19 18 0.217203
w 19 -18 0.317934
w 20 19 0
w 20 -19 1
w 21 20 1
w 21 -20 0
w 22 21 1
w 22 -21 0
w 23 1 0.388841
w 23 -1 0.609383
w 24 23 2 0.496505
w 24 23 -2 0.249159
w 24 -23 2 0.176277
w 24 -23 -2 0.340093
w 25 24 3 0.534156
w 25 24 -3 0.468869
w 25 -24 3 0.919718
w 25 -24 -3 0.285709
w 26 25 4 0.688607
w 26 25 -4 0.0801481
w 26 -25 4 0.670787
w 26 -25 -4 0.626788
w 27 26 5 1
w 27 26 -5 0
w 27 -26 5 0
w 27 -26 -5 0
w 28 27 6 0.962306
w 28 27 -6 0.35785
w 28 -27 6 0.460904
w 28 -27 -6 0.633031
w 29 28 7 1
w 29 28 -7 0
w 29 -28 7 1
w 29 -28 -7 1
w 30 29 8 0
w 30 29 -8 0
w 30 -29 8 0
w 30 -29 -8 1
w 31 30 9 0.325899
w 31 30 -9 0.999812
w 31 -30 9 0.272206
w 31 -30 -9 0.245618
w 32 31 10 0
w 32 31 -10 0
w 32 -31 10 1
w 32 -31 -10 0
w 33 32 11 0
w 33 32 -11 1
w 33 -32 11 1
w 33 -32 -11 0
w 34 33 12 1
w 34 33 -12 1
w 34 -33 12 1
w 34 -33 -12 0
w 35 34 13 0.260165
w 35 34 -13 0.309072
w 35 -34 13 0.507973
w 35 -34 -13 0.577115
w 36 35 14 1
w 36 35 -14 1
w 36 -35 14 0
w 36 -35 -14 0
w 37 36 15 0
w 37 36 -15 1
w 37 -36 15 1
w 37 -36 -15 1
w 38 37 16 0
w 38 37 -16 1
w 38 -37 16 0
w 38 -37 -16 1
w 39 38 17 0.0788791
w 39 38 -17 0.733304
w 39 -38 17 0.48717
w 39 -38 -17 0.38592
w 40 39 18 1
w 40 39 -18 1
w 40 -39 18 0
w 40 -39 -18 0
w 41 40 19 0
w 41 40 -19 1
w 41 -40 19 1
w 41 -40 -19 1
w 42 41 20 1
w 42 41 -20 0
w 42 -41 20 1
w 42 -41 -20 0
w 43 42 21 1
w 43 42 -21 0
w 43 -42 21 0
w 43 -42 -21 1
w 44 43 22 0
w 44 43 -22 1
w 44 -43 22 1
w 44 -43 -22 0
w 45 23 1
w 45 -23 0
w 46 45 24 0
w 46 45 -24 1
w 46 -45 24 1
w 46 -45 -24 1
w 47 46 25 1
w 47 46 -25 1
w 47 -46 25 1
w 47 -46 -25 0
w 48 47 26 0
w 48 47 -26 1
w 48 -47 26 0
w 48 -47 -26 0
w 49 48 27 1
w 49 48 -27 1
w 49 -48 27 1
w 49 -48 -27 0
w 50 49 28 1
w 50 49 -28 0
w 50 -49 28 1
w 50 -49 -28 1
w 51 50 29 1
w 51 50 -29 0
w 51 -50 29 1
w 51 -50 -29 0
w 52 51 30 0
w 52 51 -30 1
w 52 -51 30 1
w 52 -51 -30 1
w 53 52 31 0
w 53 52 -31 0
w 53 -52 31 1
w 53 -52 -31 0
w 54 53 32 1
w 54 53 -32 0
w 54 -53 32 0
w 54 -53 -32 0
w 55 54 33 1
w 55 54 -33 1
w 55 -54 33 0
w 55 -54 -33 0
w 56 55 34 1
w 56 55 -34 0
w 56 -55 34 0
w 56 -55 -34 1
w 57 56 35 1
w 57 56 -35 0
w 57 -56 35 1
w 57 -56 -35 1
w 58 57 36 1
w 58 57 -36 1
w 58 -57 36 0
w 58 -57 -36 0
w 59 58 37 0.336759
w 59 58 -37 0.997885
w 59 -58 37 0.934051
w 59 -58 -37 0.767394
w 60 59 38 1
w 60 59 -38 0
w 60 -59 38 0
w 60 -59 -38 1
w 61 60 39 1
w 61 60 -39 0
w 61 -60 39 0
w 61 -60 -39 1
w 62 61 40 0
w 62 61 -40 1
w 62 -61 40 1
w 62 -61 -40 1
w 63 62 41 0
w 63 62 -41 0
w 63 -62 41 0
w 63 -62 -41 1
w 64 63 42 1
w 64 63 -42 0
w 64 -63 42 0
w 64 -63 -42 1
w 65 64 43 0.41415
w 65 64 -43 0.0789111
w 65 -64 43 0.879863
w 65 -64 -43 0.181544
w 66 65 44 0
w 66 65 -44 0
w 66 -65 44 0
w 66 -65 -44 1
w 67 45 1
w 67 -45 0
w 68 67 46 0
w 68 67 -46 1
w 68 -67 46 1
w 68 -67 -46 1
w 69 68 47 0
w 69 68 -47 0
w 69 -68 47 1
w 69 -68 -47 0
w 70 69 48 0
w 70 69 -48 0
w 70 -69 48 0
w 70 -69 -48 1
w 71 70 49 0.670034
w 71 70 -49 0.887052
w 71 -70 49 0.892757
w 71 -70 -49 0.0841843
w 72 71 50 0.772621
w 72 71 -50 0.265729
w 72 -71 50 0.635288
w 72 -71 -50 0.947305
w 73 72 51 1
w 73 72 -51 1
w 73 -72 51 1
w 73 -72 -51 0
w 74 73 52 0.374661
w 74 73 -52 0.799575
w 74 -73 52 0.121656
w 74 -73 -52 0.233091
w 75 74 53 0
w 75 74 -53 1
w 75 -74 53 1
w 75 -74 -53 0
w 76 75 54 0.953182
w 76 75 -54 0.301338
w 76 -75 54 0.739334
w 76 -75 -54 0.545825
w 77 76 55 0
w 77 76 -55 1
w 77 -76 55 1
w 77 -76 -55 1
w 78 77 56 0
w 78 77 -56 0
w 78 -77 56 1
w 78 -77 -56 1
w 79 78 57 0
w 79 78 -57 0
w 79 -78 57 1
w 79 -78 -57 0
w 80 79 58 0.14024
w 80 79 -58 0.636733
w 80 -79 58 0.616741
w 80 -79 -58 0.261896
w 81 80 59 0.681966
w 81 80 -59 0.0849503
w 81 -80 59 0.168277
w 81 -80 -59 0.501563
w 82 81 60 1
w 82 81 -60 0
w 82 -81 60 1
w 82 -81 -60 1
w 83 82 61 1
w 83 82 -61 0
w 83 -82 61 1
w 83 -82 -61 0
w 84 83 62 1
w 84 83 -62 0
w 84 -83 62 0
w 84 -83 -62 1
w 85 84 63 0
w 85 84 -63 1
w 85 -84 63 1
w 85 -84 -63 0
w 86 85 64 0.187739
w 86 85 -64 0.696774
w 86 -85 64 0.428669
w 86 -85 -64 0.449636
w 87 86 65 1
w 87 86 -65 1
w 87 -86 65 1
w 87 -86 -65 0
w 88 87 66 1
w 88 87 -66 1
w 88 -87 66 1
w 88 -87 -66 0
w 89 67 1
w 89 -67 0
w 90 89 68 0.283944
w 90 89 -68 0.359618
w 90 -89 68 0.952875
w 90 -89 -68 0.800416
w 91 90 69 1
w 91 90 -69 1
w 91 -90 69 1
w 91 -90 -69 0
w 92 91 70 0
w 92 91 -70 1
w 92 -91 70 0
w 92 -91 -70 1
w 93 92 71 0
w 93 92 -71 0
w 93 -92 71 0
w 93 -92 -71 1
w 94 93 72 1
w 94 93 -72 1
w 94 -93 72 0
w 94 -93 -72 0
w 95 94 73 1
w 95 94 -73 0
w 95 -94 73 1
w 95 -94 -73 1
w 96 95 74 0.414818
w 96 95 -74 0.250673
w 96 -95 74 0.873305
w 96 -95 -74 0.215234
w 97 96 75 0
w 97 96 -75 0
w 97 -96 75 0
w 97 -96 -75 1
w 98 97 76 1
w 98 97 -76 1
w 98 -97 76 0
w 98 -97 -76 0
w 99 98 77 0.841458
w 99 98 -77 0.116802
w 99 -98 77 0.960678
w 99 -98 -77 0.225674
w 100 99 78 1
w 100 99 -78 0
w 100 -99 78 1
w 100 -99 -78 0
w 101 100 79 0
w 101 100 -79 0
w 101 -100 79 1
w 101 -100 -79 1
w 102 101 80 1
w 102 101 -80 1
w 102 -101 80 0
w 102 -101 -80 0
w 103 102 81 0
w 103 102 -81 0
w 103 -102 81 1
w 103 -102 -81 0
w 104 103 82 0.564538
w 104 103 -82 0.560742
w 104 -103 82 0.441982
w 104 -103 -82 0.132416
w 105 104 83 1
w 105 104 -83 0
w 105 -104 83 1
w 105 -104 -83 1
w 106 105 84 0
w 106 105 -84 0
w 106 -105 84 1
w 106 -105 -84 1
w 107 106 85 1
w 107 106 -85 0
w 107 -106 85 1
w 107 -106 -85 0
w 108 107 86 0.504397
w 108 107 -86 0.954548
w 108 -107 86 0.298401
w 108 -107 -86 0.467926
w 109 108 87 1
w 109 108 -87 0
w 109 -108 87 1
w 109 -108 -87 0
w 110 109 88 0.0679784
w 110 109 -88 0.856101
w 110 -109 88 0.528137
w 110 -109 -88 0.50996
w 111 89 0.532157
w 111 -89 0.908577
w 112 111 90 0.652978
w 112 111 -90 0.267871
w 112 -111 90 0.161939
w 112 -111 -90 0.0987124
w 113 112 91 0
w 113 112 -91 0
w 113 -112 91 0
w 113 -112 -91 1
w 114 113 92 0.985313
w 114 113 -92 0.414072
w 114 -113 92 0.638008
w 114 -113 -92 0.48971
w 115 114 93 0
w 115 114 -93 0
w 115 -114 93 1
w 115 -114 -93 1
w 116 115 94 0
w 116 115 -94 1
w 116 -115 94 0
w 116 -115 -94 1
w 117 116 95 1
w 117 116 -95 0
w 117 -116 95 1
w 117 -116 -95 0
w 118 117 96 1
w 118 117 -96 0
w 118 -117 96 0
w 118 -117 -96 0
w 119 118 97 0
w 119 118 -97 1
w 119 -118 97 0
w 119 -118 -97 1
w 120 119 98 0
w 120 119 -98 1
w 120 -119 98 0
w 120 -119 -98 0
w 121 120 99 1
w 121 120 -99 1
w 121 -120 99 0
w 121 -120 -99 0
w 122 121 100 0
w 122 121 -100 0
w 122 -121 100 1
w 122 -121 -100 1
w 123 122 101 0
w 123 122 -101 0
w 123 -122 101 1
w 123 -122 -101 0
w 124 123 102 0.672905
w 124 123 -102 0.689349
w 124 -123 102 0.133851
w 124 -123 -102 0.319813
w 125 124 103 0
w 125 124 -103 0
w 125 -124 103 0
w 125 -124 -103 1
w 126 125 104 1
w 126 125 -104 1
w 126 -125 104 0
w 126 -125 -104 1
w 127 126 105 1
w 127 126 -105 0
w 127 -126 105 1
w 127 -126 -105 1
w 128 127 106 0.474152
w 128 127 -106 0.172001
w 128 -127 106 0.980094
w 128 -127 -106 0.20858
w 129 128 107 0.645451
w 129 128 -107 0.0222177
w 129 -128 107 0.806309
w 129 -128 -107 0.833387
w 130 129 108 0
w 130 129 -108 0
w 130 -129 108 0
w 130 -129 -108 1
w 131 130 109 0.188978
w 131 130 -109 0.534623
w 131 -130 109 0.376404
w 131 -130 -109 0.894466
w 132 131 110 1
w 132 131 -110 0
w 132 -131 110 0
w 132 -131 -110 0
w 133 111 0
w 133 -111 1
w 134 133 112 0.816469
w 134 133 -112 0.462366
w 134 -133 112 0.748914
w 134 -133 -112 0.665268
w 135 134 113 0.920915
w 135 134 -113 0.645362
w 135 -134 113 0.145098
w 135 -134 -113 0.863736
w 136 135 114 1
w 136 135 -114 1
w 136 -135 114 0
w 136 -135 -114 0
w 137 136 115 0
w 137 136 -115 0
w 137 -136 115 1
w 137 -136 -115 1
w 138 137 116 0.680606
w 138 137 -116 0.833001
w 138 -137 116 0.834553
w 138 -137 -116 0.111976
w 139 138 117 1
w 139 138 -117 0
w 139 -138 117 1
w 139 -138 -117 1
w 140 139 118 1
w 140 139 -118 1
w 140 -139 118 0
w 140 -139 -118 0
w 141 140 119 1
w 141 140 -119 0
w 141 -140 119 0
w 141 -140 -119 0
w 142 141 120 0
w 142 141 -120 0
w 142 -141 120 1
w 142 -141 -120 1
w 143 142 121 1
w 143 142 -121 0
w 143 -142 121 1
w 143 -142 -121 0
w 144 143 122 0.810229
w 144 143 -122 0.615576
w 144 -143 122 0.983659
w 144 -143 -122 0.0910809
w 145 144 123 1
w 145 144 -123 0
w 145 -144 123 0
w 145 -144 -123 0
w 146 145 124 1
w 146 145 -124 0
w 146 -145 124 1
w 146 -145 -124 1
w 147 146 125 1
w 147 146 -125 1
w 147 -146 125 0
w 147 -146 -125 0
w 148 147 126 0
w 148 147 -126 0
w 148 -147 126 0
w 148 -147 -126 1
w 149 148 127 0
w 149 148 -127 1
w 149 -148 127 0
w 149 -148 -127 0
w 150 149 128 1
w 150 149 -128 1
w 150 -149 128 0
w 150 -149 -128 1
w 151 150 129 1
w 151 150 -129 0
w 151 -150 129 1
w 151 -150 -129 1
w 152 151 130 0
w 152 151 -130 0
w 152 -151 130 0
w 152 -151 -130 1
w 153 152 131 0
w 153 152 -131 1
w 153 -152 131 0
w 153 -152 -131 1
w 154 153 132 0
w 154 153 -132 1
w 154 -153 132 1
w 154 -153 -132 0
w 155 133 0.685224
w 155 -133 0.251993
w 156 155 134 0
w 156 155 -134 0
w 156 -155 134 0
w 156 -155 -134 1
w 157 156 135 1
w 157 156 -135 0
w 157 -156 135 0
w 157 -156 -135 0
w 158 157 136 1
w 158 157 -136 0
w 158 -157 136 1
w 158 -157 -136 1
w 159 158 137 1
w 159 158 -137 1
w 159 -158 137 0
w 159 -158 -137 0
w 160 159 138 0
w 160 159 -138 1
w 160 -159 138 1
w 160 -159 -138 0
w 161 160 139 0
w 161 160 -139 1
w 161 -160 139 0
w 161 -160 -139 0
w 162 161 140 1
w 162 161 -140 1
w 162 -161 140 0
w 162 -161 -140 0
w 163 162 141 1
w 163 162 -141 1
w 163 -162 141 0
w 163 -162 -141 0
w 164 163 142 1
w 164 163 -142 0
w 164 -163 142 0
w 164 -163 -142 1
w 165 164 143 0.0611565
w 165 164 -143 0.769168
w 165 -164 143 0.615123
w 165 -164 -143 0.12512
w 166 165 144 1
w 166 165 -144 0
w 166 -165 144 1
w 166 -165 -144 1
w 167 166 145 0
w 167 166 -145 1
w 167 -166 145 1
w 167 -166 -145 1
w 168 167 146 0.45607
w 168 167 -146 0.917427
w 168 -167 146 0.114939
w 168 -167 -146 0.72372
w 169 168 147 1
w 169 168 -147 0
w 169 -168 147 0
w 169 -168 -147 1
w 170 169 148 1
w 170 169 -148 1
w 170 -169 148 0
w 170 -169 -148 0
w 171 170 149 1
w 171 170 -149 0
w 171 -170 149 0
w 171 -170 -149 0
w 172 171 150 1
w 172 171 -150 1
w 172 -171 150 1
w 172 -171 -150 0
w 173 172 151 1
w 173 172 -151 1
w 173 -172 151 0
w 173 -172 -151 0
w 174 173 152 0
w 174 173 -152 0
w 174 -173 152 1
w 174 -173 -152 1
w 175 174 153 0
w 175 174 -153 1
w 175 -174 153 0
w 175 -174 -153 0
w 176 175 154 0
w 176 175 -154 1
w 176 -175 154 1
w 176 -175 -154 0
w 177 155 1
w 177 -155 0
w 178 177 156 0
w 178 177 -156 1
w 178 -177 156 1
w 178 -177 -156 1
w 179 178 157 1
w 179 178 -157 0
w 179 -178 157 0
w 179 -178 -157 1
w 180 179 158 1
w 180 179 -158 1
w 180 -179 158 1
w 180 -179 -158 0
w 181 180 159 0.517936
w 181 180 -159 0.427647
w 181 -180 159 0.845095
w 181 -180 -159 0.606211
w 182 181 160 0.337945
w 182 181 -160 0.598323
w 182 -181 160 0.699728
w 182 -181 -160 0.963157
w 183 182 161 1
w 183 182 -161 1
w 183 -182 161 0
w 183 -182 -161 1
w 184 183 162 1
w 184 183 -162 1
w 184 -183 162 0
w 184 -183 -162 0
w 185 184 163 1
w 185 184 -163 1
w 185 -184 163 1
w 185 -184 -163 0
w 186 185 164 0.360828
w 186 185 -164 0.899344
w 186 -185 164 0.990222
w 186 -185 -164 0.950447
w 187 186 165 0.508158
w 187 186 -165 0.378094
w 187 -186 165 0.661856
w 187 -186 -165 0.114369
w 188 187 166 0
w 188 187 -166 1
w 188 -187 166 0
w 188 -187 -166 0
w 189 188 167 0
w 189 188 -167 1
w 189 -188 167 0
w 189 -188 -167 1
w 190 189 168 0
w 190 189 -168 0
w 190 -189 168 1
w 190 -189 -168 0
w 191 190 169 1
w 191 190 -169 1
w 191 -190 169 0
w 191 -190 -169 0
w 192 191 170 1
w 192 191 -170 0
w 192 -191 170 0
w 192 -191 -170 0
w 193 192 171 0
w 193 192 -171 0
w 193 -192 171 1
w 193 -192 -171 0
w 194 193 172 0
w 194 193 -172 0
w 194 -193 172 1
w 194 -193 -172 0
w 195 194 173 1
w 195 194 -173 0
w 195 -194 173 0
w 195 -194 -173 0
w 196 195 174 0.856466
w 196 195 -174 0.561546
w 196 -195 174 0.107041
w 196 -195 -174 0.106053
w 197 196 175 1
w 197 196 -175 1
w 197 -196 175 0
w 197 -196 -175 0
w 198 197 176 0
w 198 197 -176 1
w 198 -197 176 1
w 198 -197 -176 0
w 199 177 1
w 199 -177 0
w 200 199 178 1
w 200 199 -178 0
w 200 -199 178 1
w 200 -199 -178 0
w 201 200 179 1
w 201 200 -179 0
w 201 -200 179 1
w 201 -200 -179 1
w 202 201 180 1
w 202 201 -180 0
w 202 -201 180 0
w 202 -201 -180 0
w 203 202 181 0
w 203 202 -181 0
w 203 -202 181 0
w 203 -202 -181 1
w 204 203 182 1
w 204 203 -182 0
w 204 -203 182 0
w 204 -203 -182 0
w 205 204 183 0.160868
w 205 204 -183 0.286777
w 205 -204 183 0.709416
w 205 -204 -183 0.583448
w 206 205 184 1
w 206 205 -184 1
w 206 -205 184 1
w 206 -205 -184 0
w 207 206 185 0.864098
w 207 206 -185 0.0945643
w 207 -206 185 0.349622
w 207 -206 -185 0.0866568
w 208 207 186 1
w 208 207 -186 1
w 208 -207 186 0
w 208 -207 -186 1
w 209 208 187 0
w 209 208 -187 0
w 209 -208 187 0
w 209 -208 -187 1
w 210 209 188 0
w 210 209 -188 1
w 210 -209 188 0
w 210 -209 -188 0
w 211 210 189 1
w 211 210 -189 0
w 211 -210 189 1
w 211 -210 -189 1
w 212 211 190 0.575761
w 212 211 -190 0.138261
w 212 -211 190 0.547614
w 212 -211 -190 0.0049818
w 213 212 191 1
w 213 212 -191 0
w 213 -212 191 1
w 213 -212 -191 1
w 214 213 192 0
w 214 213 -192 1
w 214 -213 192 0
w 214 -213 -192 0
w 215 214 193 0
w 215 214 -193 0
w 215 -214 193 1
w 215 -214 -193 1
w 216 215 194 0
w 216 215 -194 1
w 216 -215 194 1
w 216 -215 -194 0
w 217 216 195 1
w 217 216 -195 0
w 217 -216 195 1
w 217 -216 -195 0
w 218 217 196 0
w 218 217 -196 0
w 218 -217 196 0
w 218 -217 -196 1
w 219 218 197 1
w 219 218 -197 0
w 219 -218 197 0
w 219 -218 -197 0
w 220 219 198 1
w 220 219 -198 1
w 220 -219 198 1
w 220 -219 -198 0
w 221 199 0
w 221 -199 1
w 222 221 200 1
w 222 221 -200 1
w 222 -221 200 1
w 222 -221 -200 0
w 223 222 201 0
w 223 222 -201 1
w 223 -222 201 0
w 223 -222 -201 0
w 224 223 202 0
w 224 223 -202 1
w 224 -223 202 0
w 224 -223 -202 1
w 225 224 203 1
w 225 224 -203 0
w 225 -224 203 1
w 225 -224 -203 0
w 226 225 204 1
w 226 225 -204 0
w 226 -225 204 0
w 226 -225 -204 1
w 227 226 205 1
w 227 226 -205 0
w 227 -226 205 0
w 227 -226 -205 0
w 228 227 206 0
w 228 227 -206 1
w 228 -227 206 0
w 228 -227 -206 0
w 229 228 207 1
w 229 228 -207 0
w 229 -228 207 1
w 229 -228 -207 1
w 230 229 208 1
w 230 229 -208 1
w 230 -229 208 0
w 230 -229 -208 0
w 231 230 209 0.694224
w 231 230 -209 0.241397
w 231 -230 209 0.523209
w 231 -230 -209 0.24305
w 232 231 210 0.750892
w 232 231 -210 0.737006
w 232 -231 210 0.235123
w 232 -231 -210 0.0215927
w 233 232 211 0
w 233 232 -211 1
w 233 -232 211 0
w 233 -232 -211 0
w 234 233 212 0
w 234 233 -212 0
w 234 -233 212 1
w 234 -233 -212 0
w 235 234 213 0
w 235 234 -213 1
w 235 -234 213 1
w 235 -234 -213 1
w 236 235 214 0
w 236 235 -214 1
w 236 -235 214 1
w 236 -235 -214 0
w 237 236 215 1
w 237 236 -215 0
w 237 -236 215 1
w 237 -236 -215 1
w 238 237 216 1
w 238 237 -216 1
w 238 -237 216 0
w 238 -237 -216 1
w 239 238 217 1
w 239 238 -217 1
w 239 -238 217 1
w 239 -238 -217 0
w 240 239 218 0.0680625
w 240 239 -218 0.674757
w 240 -239 218 0.808813
w 240 -239 -218 0.568988
w 241 240 219 1
w 241 240 -219 0
w 241 -240 219 1
w 241 -240 -219 0
w 242 241 220 0
w 242 241 -220 0
w 242 -241 220 1
w 242 -241 -220 0
w 243 221 0.251336
w 243 -221 0.107346
w 244 243 222 0
w 244 243 -222 1
w 244 -243 222 0
w 244 -243 -222 1
w 245 244 223 1
w 245 244 -223 0
w 245 -244 223 0
w 245 -244 -223 0
w 246 245 224 1
w 246 245 -224 1
w 246 -245 224 0
w 246 -245 -224 1
w 247 246 225 0
w 247 246 -225 0
w 247 -246 225 1
w 247 -246 -225 1
w 248 247 226 1
w 248 247 -226 0
w 248 -247 226 0
w 248 -247 -226 1
w 249 248 227 1
w 249 248 -227 0
w 249 -248 227 1
w 249 -248 -227 0
w 250 249 228 1
w 250 249 -228 0
w 250 -249 228 0
w 250 -249 -228 1
w 251 250 229 0.749084
w 251 250 -229 0.878523
w 251 -250 229 0.859994
w 251 -250 -229 0.761149
w 252 251 230 0.254873
w 252 251 -230 0.48799
w 252 -251 230 0.862869
w 252 -251 -230 0.620824
w 253 252 231 1
w 253 252 -231 0
w 253 -252 231 1
w 253 -252 -231 1
w 254 253 232 0
w 254 253 -232 1
w 254 -253 232 0
w 254 -253 -232 1
w 255 254 233 0.508936
w 255 254 -233 0.641032
w 255 -254 233 0.15606
w 255 -254 -233 0.273737
w 256 255 234 1
w 256 255 -234 0
w 256 -255 234 1
w 256 -255 -234 1
w 257 256 235 1
w 257 256 -235 1
w 257 -256 235 0
w 257 -256 -235 1
w 258 257 236 0.412219
w 258 257 -236 0.306324
w 258 -257 236 0.462195
w 258 -257 -236 0.695113
w 259 258 237 0.257782
w 259 258 -237 0.341897
w 259 -258 237 0.435489
w 259 -258 -237 0.570527
w 260 259 238 0
w 260 259 -238 0
w 260 -259 238 0
w 260 -259 -238 1
w 261 260 239 1
w 261 260 -239 1
w 261 -260 239 1
w 261 -260 -239 0
w 262 261 240 0
w 262 261 -240 0
w 262 -261 240 0
w 262 -261 -240 1
w 263 262 241 1
w 263 262 -241 0
w 263 -262 241 1
w 263 -262 -241 1
w 264 263 242 1
w 264 263 -242 0
w 264 -263 242 1
w 264 -263 -242 1
w 265 243 0.464808
w 265 -243 0.32143
w 266 265 244 1
w 266 265 -244 0
w 266 -265 244 1
w 266 -265 -244 1
w 267 266 245 0
w 267 266 -245 1
w 267 -266 245 1
w 267 -266 -245 0
w 268 267 246 0
w 268 267 -246 1
w 268 -267 246 0
w 268 -267 -246 0
w 269 268 247 0.548079
w 269 268 -247 0.450986
w 269 -268 247 0.258758
w 269 -268 -247 0.908557
w 270 269 248 0
w 270 269 -248 1
w 270 -269 248 1
w 270 -269 -248 1
w 271 270 249 0.0172729
w 271 270 -249 0.00620391
w 271 -270 249 0.696278
w 271 -270 -249 0.482081
w 272 271 250 1
w 272 271 -250 0
w 272 -271 250 0
w 272 -271 -250 0
w 273 272 251 0.673556
w 273 272 -251 0.73448
w 273 -272 251 0.347544
w 273 -272 -251 0.590648
w 274 273 252 1
w 274 273 -252 1
w 274 -273 252 0
w 274 -273 -252 1
w 275 274 253 1
w 275 274 -253 0
w 275 -274 253 0
w 275 -274 -253 1
w 276 275 254 1
w 276 275 -254 0
w 276 -275 254 1
w 276 -275 -254 1
w 277 276 255 0
w 277 276 -255 1
w 277 -276 255 0
w 277 -276 -255 0
w 278 277 256 0
w 278 277 -256 0
w 278 -277 256 1
w 278 -277 -256 0
w 279 278 257 1
w 279 278 -257 1
w 279 -278 257 0
w 279 -278 -257 1
w 280 279 258 1
w 280 279 -258 0
w 280 -279 258 0
w 280 -279 -258 1
w 281 280 259 1
w 281 280 -259 1
w 281 -280 259 0
w 281 -280 -259 1
w 282 281 260 0
w 282 281 -260 0
w 282 -281 260 0
w 282 -281 -260 1
w 283 282 261 0
w 283 282 -261 1
w 283 -282 261 1
w 283 -282 -261 0
w 284 283 262 0
w 284 283 -262 1
w 284 -283 262 0
w 284 -283 -262 0
w 285 284 263 1
w 285 284 -263 0
w 285 -284 263 0
w 285 -284 -263 0
w 286 285 264 0.558505
w 286 285 -264 0.714506
w 286 -285 264 0.810361
w 286 -285 -264 0.85925
w 287 265 1
w 287 -265 0
w 288 287 266 1
w 288 287 -266 0
w 288 -287 266 1
w 288 -287 -266 1
w 289 288 267 1
w 289 288 -267 0
w 289 -288 267 0
w 289 -288 -267 1
w 290 289 268 1
w 290 289 -268 0
w 290 -289 268 1
w 290 -289 -268 1
w 291 290 269 1
w 291 290 -269 0
w 291 -290 269 1
w 291 -290 -269 1
w 292 291 270 1
w 292 291 -270 1
w 292 -291 270 0
w 292 -291 -270 1
w 293 292 271 0
w 293 292 -271 1
w 293 -292 271 1
w 293 -292 -271 0
w 294 293 272 1
w 294 293 -272 1
w 294 -293 272 0
w 294 -293 -272 0
w 295 294 273 0.633047
w 295 294 -273 0.927464
w 295 -294 273 0.383412
w 295 -294 -273 0.833841
w 296 295 274 0
w 296 295 -274 1
w 296 -295 274 0
w 296 -295 -274 1
w 297 296 275 0
w 297 296 -275 0
w 297 -296 275 1
w 297 -296 -275 1
w 298 297 276 1
w 298 297 -276 0
w 298 -297 276 1
w 298 -297 -276 0
w 299 298 277 0
w 299 298 -277 1
w 299 -298 277 0
w 299 -298 -277 1
w 300 299 278 1
w 300 299 -278 1
w 300 -299 278 1
w 300 -299 -278 0
w 301 300 279 0
w 301 300 -279 1
w 301 -300 279 1
w 301 -300 -279 0
w 302 301 280 0.140036
w 302 301 -280 0.830902
w 302 -301 280 0.57031
w 302 -301 -280 0.344175
w 303 302 281 0.625072
w 303 302 -281 0.601623
w 303 -302 281 0.928972
w 303 -302 -281 0.866483
w 304 303 282 1
w 304 303 -282 0
w 304 -303 282 0
w 304 -303 -282 0
w 305 304 283 0.715224
w 305 304 -283 0.496375
w 305 -304 283 0.881536
w 305 -304 -283 0.296848
w 306 305 284 1
w 306 305 -284 1
w 306 -305 284 1
w 306 -305 -284 0
w 307 306 285 0
w 307 306 -285 0
w 307 -306 285 0
w 307 -306 -285 1
w 308 307 286 0.126635
w 308 307 -286 0.612529
w 308 -307 286 0.622483
w 308 -307 -286 0.696945
w 309 287 0.556122
w 309 -287 0.322017
w 310 309 288 0
w 310 309 -288 1
w 310 -309 288 1
w 310 -309 -288 1
w 311 310 289 1
w 311 310 -289 1
w 311 -310 289 1
w 311 -310 -289 0
w 312 311 290 0.256441
w 312 311 -290 0.866365
w 312 -311 290 0.226483
w 312 -311 -290 0.500446
w 313 312 291 1
w 313 312 -291 0
w 313 -312 291 0
w 313 -312 -291 1
w 314 313 292 0
w 314 313 -292 0
w 314 -313 292 0
w 314 -313 -292 1
w 315 314 293 0
w 315 314 -293 0
w 315 -314 293 0
w 315 -314 -293 1
w 316 315 294 0
w 316 315 -294 1
w 316 -315 294 1
w 316 -315 -294 0
w 317 316 295 0.45711
w 317 316 -295 0.386229
w 317 -316 295 0.14151
w 317 -316 -295 0.832016
w 318 317 296 0.00541729
w 318 317 -296 0.0884573
w 318 -317 296 0.822111
w 318 -317 -296 0.231901
w 319 318 297 1
w 319 318 -297 1
w 319 -318 297 0
w 319 -318 -297 1
w 320 319 298 0
w 320 319 -298 1
w 320 -319 298 0
w 320 -319 -298 1
w 321 320 299 0.309776
w 321 320 -299 0.782242
w 321 -320 299 0.12623
w 321 -320 -299 0.976923
w 322 321 300 0
w 322 321 -300 0
w 322 -321 300 0
w 322 -321 -300 1
w 323 322 301 0
w 323 322 -301 1
w 323 -322 301 1
w 323 -322 -301 0
w 324 323 302 0.0763087
w 324 323 -302 0.832396
w 324 -323 302 0.0513973
w 324 -323 -302 0.89842
w 325 324 303 0
w 325 324 -303 0
w 325 -324 303 1
w 325 -324 -303 0
w 326 325 304 1
w 326 325 -304 1
w 326 -325 304 0
w 326 -325 -304 1
w 327 326 305 1
w 327 326 -305 0
w 327 -326 305 1
w 327 -326 -305 1
w 328 327 306 1
w 328 327 -306 0
w 328 -327 306 0
w 328 -327 -306 1
w 329 328 307 0
w 329 328 -307 0
w 329 -328 307 1
w 329 -328 -307 1
w 330 329 308 0
w 330 329 -308 1
w 330 -329 308 1
w 330 -329 -308 1
w 331 309 1
w 331 -309 0
w 332 331 310 0.450582
w 332 331 -310 0.197818
w 332 -331 310 0.0944302
w 332 -331 -310 0.115577
w 333 332 311 1
w 333 332 -311 1
w 333 -332 311 0
w 333 -332 -311 1
w 334 333 312 0
w 334 333 -312 0
w 334 -333 312 1
w 334 -333 -312 0
w 335 334 313 0.572417
w 335 334 -313 0.889304
w 335 -334 313 0.796637
w 335 -334 -313 0.720061
w 336 335 314 1
w 336 335 -314 0
w 336 -335 314 0
w 336 -335 -314 1
w 337 336 315 1
w 337 336 -315 0
w 337 -336 315 1
w 337 -336 -315 1
w 338 337 316 1
w 338 337 -316 0
w 338 -337 316 1
w 338 -337 -316 1
w 339 338 317 0.979413
w 339 338 -317 0.689147
w 339 -338 317 0.814806
w 339 -338 -317 0.659997
w 340 339 318 0.245334
w 340 339 -318 0.691406
w 340 -339 318 0.879312
w 340 -339 -318 0.34392
w 341 340 319 0
w 341 340 -319 1
w 341 -340 319 1
w 341 -340 -319 1
w 342 341 320 1
w 342 341 -320 0
w 342 -341 320 0
w 342 -341 -320 1
w 343 342 321 0
w 343 342 -321 0
w 343 -342 321 0
w 343 -342 -321 1
w 344 343 322 0.672607
w 344 343 -322 0.874451
w 344 -343 322 0.803135
w 344 -343 -322 0.0124861
w 345 344 323 0
w 345 344 -323 1
w 345 -344 323 1
w 345 -344 -323 1
w 346 345 324 0.789383
w 346 345 -324 0.343302
w 346 -345 324 0.871532
w 346 -345 -324 0.133303
w 347 346 325 0
w 347 346 -325 0
w 347 -346 325 0
w 347 -346 -325 1
w 348 347 326 1
w 348 347 -326 0
w 348 -347 326 0
w 348 -347 -326 1
w 349 348 327 0.196229
w 349 348 -327 0.692522
w 349 -348 327 0.454549
w 349 -348 -327 0.604433
w 350 349 328 1
w 350 349 -328 0
w 350 -349 328 0
w 350 -349 -328 0
w 351 350 329 0.217504
w 351 350 -329 0.131542
w 351 -350 329 0.0382877
w 351 -350 -329 0.761553
w 352 351 330 0.0305077
w 352 351 -330 0.550936
w 352 -351 330 0.126739
w 352 -351 -330 0.90204
w 353 331 1
w 353 -331 0
w 354 353 332 1
w 354 353 -332 1
w 354 -353 332 0
w 354 -353 -332 1
w 355 354 333 0
w 355 354 -333 1
w 355 -354 333 0
w 355 -354 -333 0
w 356 355 334 0.0341141
w 356 355 -334 0.580996
w 356 -355 334 0.541646
w 356 -355 -334 0.719241
w 357 356 335 1
w 357 356 -335 1
w 357 -356 335 0
w 357 -356 -335 0
w 358 357 336 0
w 358 357 -336 1
w 358 -357 336 1
w 358 -357 -336 0
w 359 358 337 0
w 359 358 -337 0
w 359 -358 337 0
w 359 -358 -337 1
w 360 359 338 0
w 360 359 -338 1
w 360 -359 338 1
w 360 -359 -338 1
w 361 360 339 0
w 361 360 -339 0
w 361 -360 339 0
w 361 -360 -339 1
w 362 361 340 0.340849
w 362 361 -340 0.795376
w 362 -361 340 0.641131
w 362 -361 -340 0.0490018
w 363 362 341 0.848635
w 363 362 -341 0.896797
w 363 -362 341 0.750448
w 363 -362 -341 0.273643
w 364 363 342 0.723278
w 364 363 -342 0.460203
w 364 -363 342 0.638908
w 364 -363 -342 0.726615
w 365 364 343 0
w 365 364 -343 0
w 365 -364 343 1
w 365 -364 -343 0
w 366 365 344 0
w 366 365 -344 0
w 366 -365 344 1
w 366 -365 -344 1
w 367 366 345 1
w 367 366 -345 1
w 367 -366 345 0
w 367 -366 -345 1
w 368 367 346 1
w 368 367 -346 1
w 368 -367 346 0
w 368 -367 -346 0
w 369 368 347 0
w 369 368 -347 0
w 369 -368 347 1
w 369 -368 -347 0
w 370 369 348 0
w 370 369 -348 0
w 370 -369 348 0
w 370 -369 -348 1
w 371 370 349 0
w 371 370 -349 1
w 371 -370 349 0
w 371 -370 -349 0
w 372 371 350 1
w 372 371 -350 1
w 372 -371 350 0
w 372 -371 -350 0
w 373 372 351 1
w 373 372 -351 0
w 373 -372 351 1
w 373 -372 -351 0
w 374 373 352 0
w 374 373 -352 0
w 374 -373 352 1
w 374 -373 -352 0
w 375 353 0
w 375 -353 1
w 376 375 354 0.950236
w 376 375 -354 0.269098
w 376 -375 354 0.849885
w 376 -375 -354 0.732699
w 377 376 355 1
w 377 376 -355 1
w 377 -376 355 0
w 377 -376 -355 0
w 378 377 356 1
w 378 377 -356 1
w 378 -377 356 0
w 378 -377 -356 1
w 379 378 357 1
w 379 378 -357 1
w 379 -378 357 1
w 379 -378 -357 0
w 380 379 358 0.0355153
w 380 379 -358 0.117841
w 380 -379 358 0.375607
w 380 -379 -358 0.577136
w 381 380 359 0
w 381 380 -359 1
w 381 -380 359 1
w 381 -380 -359 0
w 382 381 360 0
w 382 381 -360 0
w 382 -381 360 0
w 382 -381 -360 1
w 383 382 361 1
w 383 382 -361 0
w 383 -382 361 1
w 383 -382 -361 1
w 384 383 362 0
w 384 383 -362 0
w 384 -383 362 0
w 384 -383 -362 1
w 385 384 363 0.390649
w 385 384 -363 0.969486
w 385 -384 363 0.70114
w 385 -384 -363 0.195325
w 386 385 364 0.736655
w 386 385 -364 0.313166
w 386 -385 364 0.341322
w 386 -385 -364 0.313791
w 387 386 365 0
w 387 386 -365 0
w 387 -386 365 1
w 387 -386 -365 0
w 388 387 366 0
w 388 387 -366 1
w 388 -387 366 0
w 388 -387 -366 1
w 389 388 367 1
w 389 388 -367 0
w 389 -388 367 1
w 389 -388 -367 0
w 390 389 368 0
w 390 389 -368 0
w 390 -389 368 1
w 390 -389 -368 0
w 391 390 369 0
w 391 390 -369 0
w 391 -390 369 1
w 391 -390 -369 0
w 392 391 370 0.764145
w 392 391 -370 0.825686
w 392 -391 370 0.317485
w 392 -391 -370 0.0779366
w 393 392 371 0
w 393 392 -371 0
w 393 -392 371 1
w 393 -392 -371 0
w 394 393 372 1
w 394 393 -372 1
w 394 -393 372 0
w 394 -393 -372 0
w 395 394 373 1
w 395 394 -373 0
w 395 -394 373 1
w 395 -394 -373 1
w 396 395 374 1
w 396 395 -374 1
w 396 -395 374 0
w 396 -395 -374 1
w 397 375 0
w 397 -375 1
w 398 397 376 0
w 398 397 -376 1
w 398 -397 376 1
w 398 -397 -376 1
w 399 398 377 0.786581
w 399 398 -377 0.0706654
w 399 -398 377 0.0570091
w 399 -398 -377 0.400356
w 400 399 378 0.512155
w 400 399 -378 0.893366
w 400 -399 378 0.196858
w 400 -399 -378 0.68913
w 401 400 379 0.74406
w 401 400 -379 0.990566
w 401 -400 379 0.382514
w 401 -400 -379 0.492882
w 402 401 380 0
w 402 401 -380 0
w 402 -401 380 0
w 402 -401 -380 1
w 403 402 381 0
w 403 402 -381 1
w 403 -402 381 1
w 403 -402 -381 1
w 404 403 382 1
w 404 403 -382 1
w 404 -403 382 1
w 404 -403 -382 0
w 405 404 383 1
w 405 404 -383 1
w 405 -404 383 1
w 405 -404 -383 0
w 406 405 384 0
w 406 405 -384 1
w 406 -405 384 0
w 406 -405 -384 0
w 407 406 385 1
w 407 406 -385 1
w 407 -406 385 0
w 407 -406 -385 0
w 408 407 386 0
w 408 407 -386 1
w 408 -407 386 1
w 408 -407 -386 0
w 409 408 387 0
w 409 408 -387 1
w 409 -408 387 0
w 409 -408 -387 0
w 410 409 388 1
w 410 409 -388 0
w 410 -409 388 0
w 410 -409 -388 1
w 411 410 389 1
w 411 410 -389 0
w 411 -410 389 0
w 411 -410 -389 0
w 412 411 390 1
w 412 411 -390 0
w 412 -411 390 1
w 412 -411 -390 0
w 413 412 391 0
w 413 412 -391 1
w 413 -412 391 1
w 413 -412 -391 1
w 414 413 392 1
w 414 413 -392 0
w 414 -413 392 0
w 414 -413 -392 0
w 415 414 393 0.681106
w 415 414 -393 0.65669
w 415 -414 393 0.236154
w 415 -414 -393 0.239879
w 416 415 394 0.632185
w 416 415 -394 0.104461
w 416 -415 394 0.4704
w 416 -415 -394 0.178862
w 417 416 395 0
w 417 416 -395 1
w 417 -416 395 0
w 417 -416 -395 1
w 418 417 396 0.841894
w 418 417 -396 0.804358
w 418 -417 396 0.144817
w 418 -417 -396 0.897948
w 419 397 1
w 419 -397 0
w 420 419 398 1
w 420 419 -398 0
w 420 -419 398 0
w 420 -419 -398 0
w 421 420 399 0
w 421 420 -399 0
w 421 -420 399 0
w 421 -420 -399 1
w 422 421 400 0.00859233
w 422 421 -400 0.311779
w 422 -421 400 0.0944722
w 422 -421 -400 0.785505
w 423 422 401 0.198933
w 423 422 -401 0.255905
w 423 -422 401 0.122826
w 423 -422 -401 0.244726
w 424 423 402 0.0696754
w 424 423 -402 0.365612
w 424 -423 402 0.116898
w 424 -423 -402 0.939557
w 425 424 403 0
w 425 424 -403 1
w 425 -424 403 1
w 425 -424 -403 0
w 426 425 404 0
w 426 425 -404 0
w 426 -425 404 1
w 426 -425 -404 0
w 427 426 405 0.786812
w 427 426 -405 0.850983
w 427 -426 405 0.987298
w 427 -426 -405 0.138714
w 428 427 406 0.841891
w 428 427 -406 0.147307
w 428 -427 406 0.238387
w 428 -427 -406 0.936363
w 429 428 407 0.182351
w 429 428 -407 0.135296
w 429 -428 407 0.188717
w 429 -428 -407 0.305177
w 430 429 408 1
w 430 429 -408 1
w 430 -429 408 0
w 430 -429 -408 1
w 431 430 409 1
w 431 430 -409 0
w 431 -430 409 1
w 431 -430 -409 1
w 432 431 410 1
w 432 431 -410 1
w 432 -431 410 0
w 432 -431 -410 0
w 433 432 411 1
w 433 432 -411 1
w 433 -432 411 0
w 433 -432 -411 0
w 434 433 412 0.994652
w 434 433 -412 0.417778
w 434 -433 412 0.147247
w 434 -433 -412 0.233039
w 435 434 413 0
w 435 434 -413 1
w 435 -434 413 0
w 435 -434 -413 1
w 436 435 414 1
w 436 435 -414 0
w 436 -435 414 0
w 436 -435 -414 1
w 437 436 415 0
w 437 436 -415 1
w 437 -436 415 0
w 437 -436 -415 1
w 438 437 416 0
w 438 437 -416 0
w 438 -437 416 1
w 438 -437 -416 1
w 439 438 417 0.287551
w 439 438 -417 0.34383
w 439 -438 417 0.743126
w 439 -438 -417 0.355595
w 440 439 418 0.743067
w 440 439 -418 0.350247
w 440 -439 418 0.337495
w 440 -439 -418 0.890314
w 441 419 0
w 441 -419 1
w 442 441 420 0.998677
w 442 441 -420 0.181072
w 442 -441 420 0.23915
w 442 -441 -420 0.719244
w 443 442 421 0
w 443 442 -421 1
w 443 -442 421 1
w 443 -442 -421 0
w 444 443 422 0
w 444 443 -422 1
w 444 -443 422 0
w 444 -443 -422 0
w 445 444 423 0.931176
w 445 444 -423 0.863252
w 445 -444 423 0.722492
w 445 -444 -423 0.218728
w 446 445 424 0
w 446 445 -424 1
w 446 -445 424 0
w 446 -445 -424 1
w 447 446 425 0.464294
w 447 446 -425 0.0989988
w 447 -446 425 0.507856
w 447 -446 -425 0.155929
w 448 447 426 1
w 448 447 -426 0
w 448 -447 426 0
w 448 -447 -426 1
w 449 448 427 1
w 449 448 -427 0
w 449 -448 427 1
w 449 -448 -427 1
w 450 449 428 1
w 450 449 -428 0
w 450 -449 428 0
w 450 -449 -428 1
w 451 450 429 0.138634
w 451 450 -429 0.0788749
w 451 -450 429 0.682279
w 451 -450 -429 0.861126
w 452 451 430 1
w 452 451 -430 0
w 452 -451 430 0
w 452 -451 -430 1
w 453 452 431 1
w 453 452 -431 1
w 453 -452 431 1
w 453 -452 -431 0
w 454 453 432 0
w 454 453 -432 1
w 454 -453 432 1
w 454 -453 -432 0
w 455 454 433 1
w 455 454 -433 1
w 455 -454 433 1
w 455 -454 -433 0
w 456 455 434 0
w 456 455 -434 1
w 456 -455 434 1
w 456 -455 -434 1
w 457 456 435 0.77871
w 457 456 -435 0.927661
w 457 -456 435 0.592911
w 457 -456 -435 0.639836
w 458 457 436 0
w 458 457 -436 0
w 458 -457 436 1
w 458 -457 -436 1
w 459 458 437 0
w 459 458 -437 0
w 459 -458 437 1
w 459 -458 -437 0
w 460 459 438 1
w 460 459 -438 0
w 460 -459 438 0
w 460 -459 -438 0
w 461 460 439 0
w 461 460 -439 1
w 461 -460 439 1
w 461 -460 -439 0
w 462 461 440 0
w 462 461 -440 0
w 462 -461 440 1
w 462 -461 -440 0
w 463 441 0.0325098
w 463 -441 0.883498
w 464 463 442 0.625421
w 464 463 -442 0.523334
w 464 -463 442 0.0664389
w 464 -463 -442 0.107692
w 465 464 443 1
w 465 464 -443 1
w 465 -464 443 0
w 465 -464 -443 1
w 466 465 444 1
w 466 465 -444 0
w 466 -465 444 0
w 466 -465 -444 1
w 467 466 445 1
w 467 466 -445 1
w 467 -466 445 0
w 467 -466 -445 1
w 468 467 446 0
w 468 467 -446 1
w 468 -467 446 1
w 468 -467 -446 0
w 469 468 447 0
w 469 468 -447 0
w 469 -468 447 0
w 469 -468 -447 1
w 470 469 448 0.280904
w 470 469 -448 0.408849
w 470 -469 448 0.987991
w 470 -469 -448 0.388596
w 471 470 449 0.151618
w 471 470 -449 0.994719
w 471 -470 449 0.890683
w 471 -470 -449 0.208929
w 472 471 450 0
w 472 471 -450 0
w 472 -471 450 0
w 472 -471 -450 1
w 473 472 451 1
w 473 472 -451 0
w 473 -472 451 0
w 473 -472 -451 0
w 474 473 452 0
w 474 473 -452 0
w 474 -473 452 0
w 474 -473 -452 1
w 475 474 453 0
w 475 474 -453 1
w 475 -474 453 1
w 475 -474 -453 0
w 476 475 454 1
w 476 475 -454 1
w 476 -475 454 0
w 476 -475 -454 0
w 477 476 455 1
w 477 476 -455 1
w 477 -476 455 0
w 477 -476 -455 0
w 478 477 456 0.303091
w 478 477 -456 0.47299
w 478 -477 456 0.391151
w 478 -477 -456 0.0830905
w 479 478 457 1
w 479 478 -457 0
w 479 -478 457 0
w 479 -478 -457 1
w 480 479 458 0.54898
w 480 479 -458 0.628961
w 480 -479 458 0.368979
w 480 -479 -458 0.32967
w 481 480 459 0.945389
w 481 480 -459 0.733333
w 481 -480 459 0.367226
w 481 -480 -459 0.602177
w 482 481 460 0.622882
w 482 481 -460 0.180515
w 482 -481 460 0.132529
w 482 -481 -460 0.287388
w 483 482 461 1
w 483 482 -461 0
w 483 -482 461 0
w 483 -482 -461 0
w 484 483 462 1
w 484 483 -462 0
w 484 -483 462 1
w 484 -483 -462 0